c Standarized MaxSat Instance
c{
c "sha1sum": "262b07453169815e7f7dc99c79af735c91e260f1",
c "nvars": 60,
c "ncls": 1000,
c "total_lits": 2000,
c "nhards": 0,
c "nhard_nlits": 0,
c "nhard_len_stats":
c    { "min": 0,
c      "max": 0,
c      "ave": 0.0000,
c      "stddev": 0.0000 },
c "nsofts": 1000,
c "nsoft_nlits": 2000,
c "nsoft_len_stats":
c    { "min": 2,
c      "max": 2,
c      "ave": 2.0000,
c      "stddev": 0.0000 },
c "nsoft_wts": 1,
c "soft_wt_stats":
c    { "min": 1,
c      "max": 1,
c      "ave": 1.0000,
c      "stddev": 0.0000 }
c}
c------------------------------------------------------------
c Generated after 1 tries
c Graph with 60 nodes and 500 edges, Max edges:1770
1 1 3 0
1 -1 -3 0
1 1 7 0
1 -1 -7 0
1 1 8 0
1 -1 -8 0
1 1 11 0
1 -1 -11 0
1 1 13 0
1 -1 -13 0
1 1 19 0
1 -1 -19 0
1 1 22 0
1 -1 -22 0
1 1 24 0
1 -1 -24 0
1 1 26 0
1 -1 -26 0
1 1 27 0
1 -1 -27 0
1 1 30 0
1 -1 -30 0
1 1 39 0
1 -1 -39 0
1 1 41 0
1 -1 -41 0
1 1 50 0
1 -1 -50 0
1 1 51 0
1 -1 -51 0
1 1 52 0
1 -1 -52 0
1 1 54 0
1 -1 -54 0
1 1 55 0
1 -1 -55 0
1 1 57 0
1 -1 -57 0
1 2 6 0
1 -2 -6 0
1 2 12 0
1 -2 -12 0
1 2 17 0
1 -2 -17 0
1 2 19 0
1 -2 -19 0
1 2 25 0
1 -2 -25 0
1 2 31 0
1 -2 -31 0
1 2 33 0
1 -2 -33 0
1 2 35 0
1 -2 -35 0
1 2 38 0
1 -2 -38 0
1 2 47 0
1 -2 -47 0
1 2 50 0
1 -2 -50 0
1 2 52 0
1 -2 -52 0
1 2 58 0
1 -2 -58 0
1 2 60 0
1 -2 -60 0
1 3 6 0
1 -3 -6 0
1 3 9 0
1 -3 -9 0
1 3 12 0
1 -3 -12 0
1 3 13 0
1 -3 -13 0
1 3 14 0
1 -3 -14 0
1 3 15 0
1 -3 -15 0
1 3 18 0
1 -3 -18 0
1 3 21 0
1 -3 -21 0
1 3 24 0
1 -3 -24 0
1 3 26 0
1 -3 -26 0
1 3 30 0
1 -3 -30 0
1 3 36 0
1 -3 -36 0
1 3 37 0
1 -3 -37 0
1 3 39 0
1 -3 -39 0
1 3 40 0
1 -3 -40 0
1 3 44 0
1 -3 -44 0
1 3 55 0
1 -3 -55 0
1 3 59 0
1 -3 -59 0
1 4 11 0
1 -4 -11 0
1 4 12 0
1 -4 -12 0
1 4 13 0
1 -4 -13 0
1 4 19 0
1 -4 -19 0
1 4 21 0
1 -4 -21 0
1 4 24 0
1 -4 -24 0
1 4 26 0
1 -4 -26 0
1 4 28 0
1 -4 -28 0
1 4 29 0
1 -4 -29 0
1 4 32 0
1 -4 -32 0
1 4 36 0
1 -4 -36 0
1 4 40 0
1 -4 -40 0
1 4 42 0
1 -4 -42 0
1 4 43 0
1 -4 -43 0
1 4 45 0
1 -4 -45 0
1 4 48 0
1 -4 -48 0
1 4 50 0
1 -4 -50 0
1 4 51 0
1 -4 -51 0
1 4 52 0
1 -4 -52 0
1 4 53 0
1 -4 -53 0
1 4 55 0
1 -4 -55 0
1 4 60 0
1 -4 -60 0
1 5 6 0
1 -5 -6 0
1 5 9 0
1 -5 -9 0
1 5 11 0
1 -5 -11 0
1 5 15 0
1 -5 -15 0
1 5 18 0
1 -5 -18 0
1 5 20 0
1 -5 -20 0
1 5 21 0
1 -5 -21 0
1 5 26 0
1 -5 -26 0
1 5 31 0
1 -5 -31 0
1 5 33 0
1 -5 -33 0
1 5 34 0
1 -5 -34 0
1 5 41 0
1 -5 -41 0
1 5 45 0
1 -5 -45 0
1 5 52 0
1 -5 -52 0
1 5 56 0
1 -5 -56 0
1 6 7 0
1 -6 -7 0
1 6 9 0
1 -6 -9 0
1 6 12 0
1 -6 -12 0
1 6 14 0
1 -6 -14 0
1 6 19 0
1 -6 -19 0
1 6 33 0
1 -6 -33 0
1 6 36 0
1 -6 -36 0
1 6 39 0
1 -6 -39 0
1 6 43 0
1 -6 -43 0
1 6 44 0
1 -6 -44 0
1 6 47 0
1 -6 -47 0
1 6 48 0
1 -6 -48 0
1 6 49 0
1 -6 -49 0
1 6 51 0
1 -6 -51 0
1 6 52 0
1 -6 -52 0
1 6 53 0
1 -6 -53 0
1 6 54 0
1 -6 -54 0
1 6 59 0
1 -6 -59 0
1 7 11 0
1 -7 -11 0
1 7 18 0
1 -7 -18 0
1 7 19 0
1 -7 -19 0
1 7 28 0
1 -7 -28 0
1 7 31 0
1 -7 -31 0
1 7 32 0
1 -7 -32 0
1 7 35 0
1 -7 -35 0
1 7 43 0
1 -7 -43 0
1 7 45 0
1 -7 -45 0
1 7 48 0
1 -7 -48 0
1 7 50 0
1 -7 -50 0
1 7 53 0
1 -7 -53 0
1 7 59 0
1 -7 -59 0
1 7 60 0
1 -7 -60 0
1 8 10 0
1 -8 -10 0
1 8 17 0
1 -8 -17 0
1 8 21 0
1 -8 -21 0
1 8 22 0
1 -8 -22 0
1 8 23 0
1 -8 -23 0
1 8 27 0
1 -8 -27 0
1 8 29 0
1 -8 -29 0
1 8 30 0
1 -8 -30 0
1 8 39 0
1 -8 -39 0
1 8 40 0
1 -8 -40 0
1 8 44 0
1 -8 -44 0
1 8 48 0
1 -8 -48 0
1 8 53 0
1 -8 -53 0
1 8 55 0
1 -8 -55 0
1 9 14 0
1 -9 -14 0
1 9 15 0
1 -9 -15 0
1 9 19 0
1 -9 -19 0
1 9 23 0
1 -9 -23 0
1 9 24 0
1 -9 -24 0
1 9 27 0
1 -9 -27 0
1 9 29 0
1 -9 -29 0
1 9 36 0
1 -9 -36 0
1 9 39 0
1 -9 -39 0
1 9 40 0
1 -9 -40 0
1 9 45 0
1 -9 -45 0
1 9 47 0
1 -9 -47 0
1 9 51 0
1 -9 -51 0
1 9 54 0
1 -9 -54 0
1 9 55 0
1 -9 -55 0
1 9 57 0
1 -9 -57 0
1 10 11 0
1 -10 -11 0
1 10 19 0
1 -10 -19 0
1 10 29 0
1 -10 -29 0
1 10 32 0
1 -10 -32 0
1 10 37 0
1 -10 -37 0
1 10 38 0
1 -10 -38 0
1 10 39 0
1 -10 -39 0
1 10 41 0
1 -10 -41 0
1 10 44 0
1 -10 -44 0
1 10 46 0
1 -10 -46 0
1 10 48 0
1 -10 -48 0
1 10 55 0
1 -10 -55 0
1 10 57 0
1 -10 -57 0
1 10 58 0
1 -10 -58 0
1 10 59 0
1 -10 -59 0
1 10 60 0
1 -10 -60 0
1 11 13 0
1 -11 -13 0
1 11 17 0
1 -11 -17 0
1 11 18 0
1 -11 -18 0
1 11 20 0
1 -11 -20 0
1 11 21 0
1 -11 -21 0
1 11 23 0
1 -11 -23 0
1 11 24 0
1 -11 -24 0
1 11 26 0
1 -11 -26 0
1 11 33 0
1 -11 -33 0
1 11 36 0
1 -11 -36 0
1 11 47 0
1 -11 -47 0
1 11 49 0
1 -11 -49 0
1 11 51 0
1 -11 -51 0
1 11 58 0
1 -11 -58 0
1 12 14 0
1 -12 -14 0
1 12 16 0
1 -12 -16 0
1 12 18 0
1 -12 -18 0
1 12 24 0
1 -12 -24 0
1 12 27 0
1 -12 -27 0
1 12 28 0
1 -12 -28 0
1 12 31 0
1 -12 -31 0
1 12 34 0
1 -12 -34 0
1 12 41 0
1 -12 -41 0
1 12 49 0
1 -12 -49 0
1 12 50 0
1 -12 -50 0
1 12 52 0
1 -12 -52 0
1 12 55 0
1 -12 -55 0
1 12 56 0
1 -12 -56 0
1 12 57 0
1 -12 -57 0
1 13 15 0
1 -13 -15 0
1 13 19 0
1 -13 -19 0
1 13 21 0
1 -13 -21 0
1 13 23 0
1 -13 -23 0
1 13 25 0
1 -13 -25 0
1 13 28 0
1 -13 -28 0
1 13 34 0
1 -13 -34 0
1 13 40 0
1 -13 -40 0
1 13 46 0
1 -13 -46 0
1 13 48 0
1 -13 -48 0
1 13 49 0
1 -13 -49 0
1 13 50 0
1 -13 -50 0
1 13 52 0
1 -13 -52 0
1 13 56 0
1 -13 -56 0
1 13 60 0
1 -13 -60 0
1 14 16 0
1 -14 -16 0
1 14 23 0
1 -14 -23 0
1 14 25 0
1 -14 -25 0
1 14 26 0
1 -14 -26 0
1 14 27 0
1 -14 -27 0
1 14 28 0
1 -14 -28 0
1 14 36 0
1 -14 -36 0
1 14 38 0
1 -14 -38 0
1 14 43 0
1 -14 -43 0
1 14 45 0
1 -14 -45 0
1 14 49 0
1 -14 -49 0
1 14 57 0
1 -14 -57 0
1 14 59 0
1 -14 -59 0
1 15 23 0
1 -15 -23 0
1 15 25 0
1 -15 -25 0
1 15 28 0
1 -15 -28 0
1 15 29 0
1 -15 -29 0
1 15 34 0
1 -15 -34 0
1 15 37 0
1 -15 -37 0
1 15 39 0
1 -15 -39 0
1 15 41 0
1 -15 -41 0
1 15 43 0
1 -15 -43 0
1 15 44 0
1 -15 -44 0
1 15 46 0
1 -15 -46 0
1 15 47 0
1 -15 -47 0
1 15 49 0
1 -15 -49 0
1 15 58 0
1 -15 -58 0
1 16 17 0
1 -16 -17 0
1 16 19 0
1 -16 -19 0
1 16 20 0
1 -16 -20 0
1 16 21 0
1 -16 -21 0
1 16 22 0
1 -16 -22 0
1 16 26 0
1 -16 -26 0
1 16 27 0
1 -16 -27 0
1 16 30 0
1 -16 -30 0
1 16 32 0
1 -16 -32 0
1 16 44 0
1 -16 -44 0
1 16 45 0
1 -16 -45 0
1 16 53 0
1 -16 -53 0
1 16 54 0
1 -16 -54 0
1 16 55 0
1 -16 -55 0
1 16 58 0
1 -16 -58 0
1 16 59 0
1 -16 -59 0
1 17 19 0
1 -17 -19 0
1 17 20 0
1 -17 -20 0
1 17 22 0
1 -17 -22 0
1 17 27 0
1 -17 -27 0
1 17 36 0
1 -17 -36 0
1 17 39 0
1 -17 -39 0
1 17 55 0
1 -17 -55 0
1 17 58 0
1 -17 -58 0
1 17 60 0
1 -17 -60 0
1 18 28 0
1 -18 -28 0
1 18 32 0
1 -18 -32 0
1 18 34 0
1 -18 -34 0
1 18 48 0
1 -18 -48 0
1 18 52 0
1 -18 -52 0
1 18 54 0
1 -18 -54 0
1 18 57 0
1 -18 -57 0
1 18 59 0
1 -18 -59 0
1 19 21 0
1 -19 -21 0
1 19 23 0
1 -19 -23 0
1 19 25 0
1 -19 -25 0
1 19 28 0
1 -19 -28 0
1 19 38 0
1 -19 -38 0
1 19 41 0
1 -19 -41 0
1 19 43 0
1 -19 -43 0
1 19 48 0
1 -19 -48 0
1 19 58 0
1 -19 -58 0
1 20 24 0
1 -20 -24 0
1 20 28 0
1 -20 -28 0
1 20 29 0
1 -20 -29 0
1 20 31 0
1 -20 -31 0
1 20 37 0
1 -20 -37 0
1 20 48 0
1 -20 -48 0
1 20 49 0
1 -20 -49 0
1 20 51 0
1 -20 -51 0
1 20 55 0
1 -20 -55 0
1 20 58 0
1 -20 -58 0
1 20 59 0
1 -20 -59 0
1 21 22 0
1 -21 -22 0
1 21 28 0
1 -21 -28 0
1 21 31 0
1 -21 -31 0
1 21 33 0
1 -21 -33 0
1 21 37 0
1 -21 -37 0
1 21 44 0
1 -21 -44 0
1 21 47 0
1 -21 -47 0
1 21 48 0
1 -21 -48 0
1 21 55 0
1 -21 -55 0
1 22 27 0
1 -22 -27 0
1 22 31 0
1 -22 -31 0
1 22 32 0
1 -22 -32 0
1 22 40 0
1 -22 -40 0
1 22 48 0
1 -22 -48 0
1 22 57 0
1 -22 -57 0
1 22 58 0
1 -22 -58 0
1 22 60 0
1 -22 -60 0
1 23 29 0
1 -23 -29 0
1 23 33 0
1 -23 -33 0
1 23 34 0
1 -23 -34 0
1 23 36 0
1 -23 -36 0
1 23 38 0
1 -23 -38 0
1 23 39 0
1 -23 -39 0
1 23 40 0
1 -23 -40 0
1 23 43 0
1 -23 -43 0
1 23 50 0
1 -23 -50 0
1 23 53 0
1 -23 -53 0
1 23 54 0
1 -23 -54 0
1 23 55 0
1 -23 -55 0
1 23 56 0
1 -23 -56 0
1 23 57 0
1 -23 -57 0
1 23 60 0
1 -23 -60 0
1 24 27 0
1 -24 -27 0
1 24 28 0
1 -24 -28 0
1 24 29 0
1 -24 -29 0
1 24 31 0
1 -24 -31 0
1 24 32 0
1 -24 -32 0
1 24 36 0
1 -24 -36 0
1 24 42 0
1 -24 -42 0
1 24 43 0
1 -24 -43 0
1 24 44 0
1 -24 -44 0
1 24 45 0
1 -24 -45 0
1 24 51 0
1 -24 -51 0
1 24 54 0
1 -24 -54 0
1 24 59 0
1 -24 -59 0
1 25 31 0
1 -25 -31 0
1 25 35 0
1 -25 -35 0
1 25 39 0
1 -25 -39 0
1 25 40 0
1 -25 -40 0
1 25 41 0
1 -25 -41 0
1 25 42 0
1 -25 -42 0
1 25 43 0
1 -25 -43 0
1 25 44 0
1 -25 -44 0
1 25 46 0
1 -25 -46 0
1 25 47 0
1 -25 -47 0
1 25 51 0
1 -25 -51 0
1 25 58 0
1 -25 -58 0
1 26 27 0
1 -26 -27 0
1 26 32 0
1 -26 -32 0
1 26 34 0
1 -26 -34 0
1 26 39 0
1 -26 -39 0
1 26 41 0
1 -26 -41 0
1 26 42 0
1 -26 -42 0
1 26 53 0
1 -26 -53 0
1 26 57 0
1 -26 -57 0
1 26 60 0
1 -26 -60 0
1 27 36 0
1 -27 -36 0
1 27 37 0
1 -27 -37 0
1 27 39 0
1 -27 -39 0
1 27 42 0
1 -27 -42 0
1 27 44 0
1 -27 -44 0
1 27 48 0
1 -27 -48 0
1 27 49 0
1 -27 -49 0
1 27 50 0
1 -27 -50 0
1 27 55 0
1 -27 -55 0
1 27 56 0
1 -27 -56 0
1 27 57 0
1 -27 -57 0
1 27 58 0
1 -27 -58 0
1 27 59 0
1 -27 -59 0
1 27 60 0
1 -27 -60 0
1 28 30 0
1 -28 -30 0
1 28 34 0
1 -28 -34 0
1 28 39 0
1 -28 -39 0
1 28 45 0
1 -28 -45 0
1 28 51 0
1 -28 -51 0
1 28 57 0
1 -28 -57 0
1 29 34 0
1 -29 -34 0
1 29 37 0
1 -29 -37 0
1 29 54 0
1 -29 -54 0
1 30 47 0
1 -30 -47 0
1 30 53 0
1 -30 -53 0
1 30 55 0
1 -30 -55 0
1 30 59 0
1 -30 -59 0
1 31 34 0
1 -31 -34 0
1 31 35 0
1 -31 -35 0
1 31 38 0
1 -31 -38 0
1 31 40 0
1 -31 -40 0
1 31 53 0
1 -31 -53 0
1 31 54 0
1 -31 -54 0
1 31 55 0
1 -31 -55 0
1 31 60 0
1 -31 -60 0
1 32 33 0
1 -32 -33 0
1 32 35 0
1 -32 -35 0
1 32 36 0
1 -32 -36 0
1 32 40 0
1 -32 -40 0
1 32 45 0
1 -32 -45 0
1 32 48 0
1 -32 -48 0
1 32 49 0
1 -32 -49 0
1 32 51 0
1 -32 -51 0
1 32 52 0
1 -32 -52 0
1 32 55 0
1 -32 -55 0
1 32 57 0
1 -32 -57 0
1 33 38 0
1 -33 -38 0
1 33 39 0
1 -33 -39 0
1 33 42 0
1 -33 -42 0
1 33 52 0
1 -33 -52 0
1 33 55 0
1 -33 -55 0
1 33 56 0
1 -33 -56 0
1 34 35 0
1 -34 -35 0
1 34 37 0
1 -34 -37 0
1 34 41 0
1 -34 -41 0
1 34 44 0
1 -34 -44 0
1 34 59 0
1 -34 -59 0
1 35 36 0
1 -35 -36 0
1 35 39 0
1 -35 -39 0
1 35 42 0
1 -35 -42 0
1 35 43 0
1 -35 -43 0
1 35 44 0
1 -35 -44 0
1 35 45 0
1 -35 -45 0
1 35 46 0
1 -35 -46 0
1 35 52 0
1 -35 -52 0
1 35 53 0
1 -35 -53 0
1 35 56 0
1 -35 -56 0
1 36 41 0
1 -36 -41 0
1 36 43 0
1 -36 -43 0
1 36 44 0
1 -36 -44 0
1 36 49 0
1 -36 -49 0
1 36 52 0
1 -36 -52 0
1 36 57 0
1 -36 -57 0
1 36 58 0
1 -36 -58 0
1 36 59 0
1 -36 -59 0
1 37 45 0
1 -37 -45 0
1 37 46 0
1 -37 -46 0
1 37 50 0
1 -37 -50 0
1 37 52 0
1 -37 -52 0
1 37 55 0
1 -37 -55 0
1 37 58 0
1 -37 -58 0
1 38 46 0
1 -38 -46 0
1 38 48 0
1 -38 -48 0
1 38 51 0
1 -38 -51 0
1 38 55 0
1 -38 -55 0
1 38 57 0
1 -38 -57 0
1 39 41 0
1 -39 -41 0
1 39 42 0
1 -39 -42 0
1 39 44 0
1 -39 -44 0
1 39 45 0
1 -39 -45 0
1 39 46 0
1 -39 -46 0
1 39 51 0
1 -39 -51 0
1 39 54 0
1 -39 -54 0
1 40 42 0
1 -40 -42 0
1 40 43 0
1 -40 -43 0
1 40 45 0
1 -40 -45 0
1 40 50 0
1 -40 -50 0
1 40 53 0
1 -40 -53 0
1 41 42 0
1 -41 -42 0
1 41 50 0
1 -41 -50 0
1 41 54 0
1 -41 -54 0
1 41 55 0
1 -41 -55 0
1 41 57 0
1 -41 -57 0
1 42 54 0
1 -42 -54 0
1 42 58 0
1 -42 -58 0
1 42 60 0
1 -42 -60 0
1 43 47 0
1 -43 -47 0
1 43 49 0
1 -43 -49 0
1 44 48 0
1 -44 -48 0
1 44 51 0
1 -44 -51 0
1 44 52 0
1 -44 -52 0
1 44 55 0
1 -44 -55 0
1 44 58 0
1 -44 -58 0
1 45 52 0
1 -45 -52 0
1 45 56 0
1 -45 -56 0
1 46 51 0
1 -46 -51 0
1 46 52 0
1 -46 -52 0
1 47 48 0
1 -47 -48 0
1 47 52 0
1 -47 -52 0
1 47 53 0
1 -47 -53 0
1 47 54 0
1 -47 -54 0
1 47 57 0
1 -47 -57 0
1 47 60 0
1 -47 -60 0
1 48 55 0
1 -48 -55 0
1 48 56 0
1 -48 -56 0
1 48 59 0
1 -48 -59 0
1 48 60 0
1 -48 -60 0
1 49 50 0
1 -49 -50 0
1 49 58 0
1 -49 -58 0
1 50 53 0
1 -50 -53 0
1 50 54 0
1 -50 -54 0
1 51 53 0
1 -51 -53 0
1 51 57 0
1 -51 -57 0
1 51 58 0
1 -51 -58 0
1 52 56 0
1 -52 -56 0
1 53 54 0
1 -53 -54 0
1 53 57 0
1 -53 -57 0
1 53 58 0
1 -53 -58 0
1 54 55 0
1 -54 -55 0
1 54 59 0
1 -54 -59 0
1 55 57 0
1 -55 -57 0
1 55 58 0
1 -55 -58 0
1 57 59 0
1 -57 -59 0
1 59 60 0
1 -59 -60 0
